c *********************************
c * Circuit generated by BenCGen
c *
c * Parity_235
c *
c * Ports with 1 gate(s): 1
c * Ports with 2 gate(s): 235
c * Total gates: 236
c *********************************
p cnf 471 941
1 238 0
-1 -238 0
1 -237 0
238 -237 0
-1 -238 237 0
1 2 -239 0
-1 2 239 0
1 -2 239 0
-1 -2 -239 0
3 4 -240 0
-3 4 240 0
3 -4 240 0
-3 -4 -240 0
5 6 -241 0
-5 6 241 0
5 -6 241 0
-5 -6 -241 0
7 8 -242 0
-7 8 242 0
7 -8 242 0
-7 -8 -242 0
9 10 -243 0
-9 10 243 0
9 -10 243 0
-9 -10 -243 0
11 12 -244 0
-11 12 244 0
11 -12 244 0
-11 -12 -244 0
13 14 -245 0
-13 14 245 0
13 -14 245 0
-13 -14 -245 0
15 16 -246 0
-15 16 246 0
15 -16 246 0
-15 -16 -246 0
17 18 -247 0
-17 18 247 0
17 -18 247 0
-17 -18 -247 0
19 20 -248 0
-19 20 248 0
19 -20 248 0
-19 -20 -248 0
21 22 -249 0
-21 22 249 0
21 -22 249 0
-21 -22 -249 0
23 24 -250 0
-23 24 250 0
23 -24 250 0
-23 -24 -250 0
25 26 -251 0
-25 26 251 0
25 -26 251 0
-25 -26 -251 0
27 28 -252 0
-27 28 252 0
27 -28 252 0
-27 -28 -252 0
29 30 -253 0
-29 30 253 0
29 -30 253 0
-29 -30 -253 0
31 32 -254 0
-31 32 254 0
31 -32 254 0
-31 -32 -254 0
33 34 -255 0
-33 34 255 0
33 -34 255 0
-33 -34 -255 0
35 36 -256 0
-35 36 256 0
35 -36 256 0
-35 -36 -256 0
37 38 -257 0
-37 38 257 0
37 -38 257 0
-37 -38 -257 0
39 40 -258 0
-39 40 258 0
39 -40 258 0
-39 -40 -258 0
41 42 -259 0
-41 42 259 0
41 -42 259 0
-41 -42 -259 0
43 44 -260 0
-43 44 260 0
43 -44 260 0
-43 -44 -260 0
45 46 -261 0
-45 46 261 0
45 -46 261 0
-45 -46 -261 0
47 48 -262 0
-47 48 262 0
47 -48 262 0
-47 -48 -262 0
49 50 -263 0
-49 50 263 0
49 -50 263 0
-49 -50 -263 0
51 52 -264 0
-51 52 264 0
51 -52 264 0
-51 -52 -264 0
53 54 -265 0
-53 54 265 0
53 -54 265 0
-53 -54 -265 0
55 56 -266 0
-55 56 266 0
55 -56 266 0
-55 -56 -266 0
57 58 -267 0
-57 58 267 0
57 -58 267 0
-57 -58 -267 0
59 60 -268 0
-59 60 268 0
59 -60 268 0
-59 -60 -268 0
61 62 -269 0
-61 62 269 0
61 -62 269 0
-61 -62 -269 0
63 64 -270 0
-63 64 270 0
63 -64 270 0
-63 -64 -270 0
65 66 -271 0
-65 66 271 0
65 -66 271 0
-65 -66 -271 0
67 68 -272 0
-67 68 272 0
67 -68 272 0
-67 -68 -272 0
69 70 -273 0
-69 70 273 0
69 -70 273 0
-69 -70 -273 0
71 72 -274 0
-71 72 274 0
71 -72 274 0
-71 -72 -274 0
73 74 -275 0
-73 74 275 0
73 -74 275 0
-73 -74 -275 0
75 76 -276 0
-75 76 276 0
75 -76 276 0
-75 -76 -276 0
77 78 -277 0
-77 78 277 0
77 -78 277 0
-77 -78 -277 0
79 80 -278 0
-79 80 278 0
79 -80 278 0
-79 -80 -278 0
81 82 -279 0
-81 82 279 0
81 -82 279 0
-81 -82 -279 0
83 84 -280 0
-83 84 280 0
83 -84 280 0
-83 -84 -280 0
85 86 -281 0
-85 86 281 0
85 -86 281 0
-85 -86 -281 0
87 88 -282 0
-87 88 282 0
87 -88 282 0
-87 -88 -282 0
89 90 -283 0
-89 90 283 0
89 -90 283 0
-89 -90 -283 0
91 92 -284 0
-91 92 284 0
91 -92 284 0
-91 -92 -284 0
93 94 -285 0
-93 94 285 0
93 -94 285 0
-93 -94 -285 0
95 96 -286 0
-95 96 286 0
95 -96 286 0
-95 -96 -286 0
97 98 -287 0
-97 98 287 0
97 -98 287 0
-97 -98 -287 0
99 100 -288 0
-99 100 288 0
99 -100 288 0
-99 -100 -288 0
101 102 -289 0
-101 102 289 0
101 -102 289 0
-101 -102 -289 0
103 104 -290 0
-103 104 290 0
103 -104 290 0
-103 -104 -290 0
105 106 -291 0
-105 106 291 0
105 -106 291 0
-105 -106 -291 0
107 108 -292 0
-107 108 292 0
107 -108 292 0
-107 -108 -292 0
109 110 -293 0
-109 110 293 0
109 -110 293 0
-109 -110 -293 0
111 112 -294 0
-111 112 294 0
111 -112 294 0
-111 -112 -294 0
113 114 -295 0
-113 114 295 0
113 -114 295 0
-113 -114 -295 0
115 116 -296 0
-115 116 296 0
115 -116 296 0
-115 -116 -296 0
117 118 -297 0
-117 118 297 0
117 -118 297 0
-117 -118 -297 0
119 120 -298 0
-119 120 298 0
119 -120 298 0
-119 -120 -298 0
121 122 -299 0
-121 122 299 0
121 -122 299 0
-121 -122 -299 0
123 124 -300 0
-123 124 300 0
123 -124 300 0
-123 -124 -300 0
125 126 -301 0
-125 126 301 0
125 -126 301 0
-125 -126 -301 0
127 128 -302 0
-127 128 302 0
127 -128 302 0
-127 -128 -302 0
129 130 -303 0
-129 130 303 0
129 -130 303 0
-129 -130 -303 0
131 132 -304 0
-131 132 304 0
131 -132 304 0
-131 -132 -304 0
133 134 -305 0
-133 134 305 0
133 -134 305 0
-133 -134 -305 0
135 136 -306 0
-135 136 306 0
135 -136 306 0
-135 -136 -306 0
137 138 -307 0
-137 138 307 0
137 -138 307 0
-137 -138 -307 0
139 140 -308 0
-139 140 308 0
139 -140 308 0
-139 -140 -308 0
141 142 -309 0
-141 142 309 0
141 -142 309 0
-141 -142 -309 0
143 144 -310 0
-143 144 310 0
143 -144 310 0
-143 -144 -310 0
145 146 -311 0
-145 146 311 0
145 -146 311 0
-145 -146 -311 0
147 148 -312 0
-147 148 312 0
147 -148 312 0
-147 -148 -312 0
149 150 -313 0
-149 150 313 0
149 -150 313 0
-149 -150 -313 0
151 152 -314 0
-151 152 314 0
151 -152 314 0
-151 -152 -314 0
153 154 -315 0
-153 154 315 0
153 -154 315 0
-153 -154 -315 0
155 156 -316 0
-155 156 316 0
155 -156 316 0
-155 -156 -316 0
157 158 -317 0
-157 158 317 0
157 -158 317 0
-157 -158 -317 0
159 160 -318 0
-159 160 318 0
159 -160 318 0
-159 -160 -318 0
161 162 -319 0
-161 162 319 0
161 -162 319 0
-161 -162 -319 0
163 164 -320 0
-163 164 320 0
163 -164 320 0
-163 -164 -320 0
165 166 -321 0
-165 166 321 0
165 -166 321 0
-165 -166 -321 0
167 168 -322 0
-167 168 322 0
167 -168 322 0
-167 -168 -322 0
169 170 -323 0
-169 170 323 0
169 -170 323 0
-169 -170 -323 0
171 172 -324 0
-171 172 324 0
171 -172 324 0
-171 -172 -324 0
173 174 -325 0
-173 174 325 0
173 -174 325 0
-173 -174 -325 0
175 176 -326 0
-175 176 326 0
175 -176 326 0
-175 -176 -326 0
177 178 -327 0
-177 178 327 0
177 -178 327 0
-177 -178 -327 0
179 180 -328 0
-179 180 328 0
179 -180 328 0
-179 -180 -328 0
181 182 -329 0
-181 182 329 0
181 -182 329 0
-181 -182 -329 0
183 184 -330 0
-183 184 330 0
183 -184 330 0
-183 -184 -330 0
185 186 -331 0
-185 186 331 0
185 -186 331 0
-185 -186 -331 0
187 188 -332 0
-187 188 332 0
187 -188 332 0
-187 -188 -332 0
189 190 -333 0
-189 190 333 0
189 -190 333 0
-189 -190 -333 0
191 192 -334 0
-191 192 334 0
191 -192 334 0
-191 -192 -334 0
193 194 -335 0
-193 194 335 0
193 -194 335 0
-193 -194 -335 0
195 196 -336 0
-195 196 336 0
195 -196 336 0
-195 -196 -336 0
197 198 -337 0
-197 198 337 0
197 -198 337 0
-197 -198 -337 0
199 200 -338 0
-199 200 338 0
199 -200 338 0
-199 -200 -338 0
201 202 -339 0
-201 202 339 0
201 -202 339 0
-201 -202 -339 0
203 204 -340 0
-203 204 340 0
203 -204 340 0
-203 -204 -340 0
205 206 -341 0
-205 206 341 0
205 -206 341 0
-205 -206 -341 0
207 208 -342 0
-207 208 342 0
207 -208 342 0
-207 -208 -342 0
209 210 -343 0
-209 210 343 0
209 -210 343 0
-209 -210 -343 0
211 212 -344 0
-211 212 344 0
211 -212 344 0
-211 -212 -344 0
213 214 -345 0
-213 214 345 0
213 -214 345 0
-213 -214 -345 0
215 216 -346 0
-215 216 346 0
215 -216 346 0
-215 -216 -346 0
217 218 -347 0
-217 218 347 0
217 -218 347 0
-217 -218 -347 0
219 220 -348 0
-219 220 348 0
219 -220 348 0
-219 -220 -348 0
221 222 -349 0
-221 222 349 0
221 -222 349 0
-221 -222 -349 0
223 224 -350 0
-223 224 350 0
223 -224 350 0
-223 -224 -350 0
225 226 -351 0
-225 226 351 0
225 -226 351 0
-225 -226 -351 0
227 228 -352 0
-227 228 352 0
227 -228 352 0
-227 -228 -352 0
229 230 -353 0
-229 230 353 0
229 -230 353 0
-229 -230 -353 0
231 232 -354 0
-231 232 354 0
231 -232 354 0
-231 -232 -354 0
233 234 -355 0
-233 234 355 0
233 -234 355 0
-233 -234 -355 0
239 240 -356 0
-239 240 356 0
239 -240 356 0
-239 -240 -356 0
241 242 -357 0
-241 242 357 0
241 -242 357 0
-241 -242 -357 0
243 244 -358 0
-243 244 358 0
243 -244 358 0
-243 -244 -358 0
245 246 -359 0
-245 246 359 0
245 -246 359 0
-245 -246 -359 0
247 248 -360 0
-247 248 360 0
247 -248 360 0
-247 -248 -360 0
249 250 -361 0
-249 250 361 0
249 -250 361 0
-249 -250 -361 0
251 252 -362 0
-251 252 362 0
251 -252 362 0
-251 -252 -362 0
253 254 -363 0
-253 254 363 0
253 -254 363 0
-253 -254 -363 0
255 256 -364 0
-255 256 364 0
255 -256 364 0
-255 -256 -364 0
257 258 -365 0
-257 258 365 0
257 -258 365 0
-257 -258 -365 0
259 260 -366 0
-259 260 366 0
259 -260 366 0
-259 -260 -366 0
261 262 -367 0
-261 262 367 0
261 -262 367 0
-261 -262 -367 0
263 264 -368 0
-263 264 368 0
263 -264 368 0
-263 -264 -368 0
265 266 -369 0
-265 266 369 0
265 -266 369 0
-265 -266 -369 0
267 268 -370 0
-267 268 370 0
267 -268 370 0
-267 -268 -370 0
269 270 -371 0
-269 270 371 0
269 -270 371 0
-269 -270 -371 0
271 272 -372 0
-271 272 372 0
271 -272 372 0
-271 -272 -372 0
273 274 -373 0
-273 274 373 0
273 -274 373 0
-273 -274 -373 0
275 276 -374 0
-275 276 374 0
275 -276 374 0
-275 -276 -374 0
277 278 -375 0
-277 278 375 0
277 -278 375 0
-277 -278 -375 0
279 280 -376 0
-279 280 376 0
279 -280 376 0
-279 -280 -376 0
281 282 -377 0
-281 282 377 0
281 -282 377 0
-281 -282 -377 0
283 284 -378 0
-283 284 378 0
283 -284 378 0
-283 -284 -378 0
285 286 -379 0
-285 286 379 0
285 -286 379 0
-285 -286 -379 0
287 288 -380 0
-287 288 380 0
287 -288 380 0
-287 -288 -380 0
289 290 -381 0
-289 290 381 0
289 -290 381 0
-289 -290 -381 0
291 292 -382 0
-291 292 382 0
291 -292 382 0
-291 -292 -382 0
293 294 -383 0
-293 294 383 0
293 -294 383 0
-293 -294 -383 0
295 296 -384 0
-295 296 384 0
295 -296 384 0
-295 -296 -384 0
297 298 -385 0
-297 298 385 0
297 -298 385 0
-297 -298 -385 0
299 300 -386 0
-299 300 386 0
299 -300 386 0
-299 -300 -386 0
301 302 -387 0
-301 302 387 0
301 -302 387 0
-301 -302 -387 0
303 304 -388 0
-303 304 388 0
303 -304 388 0
-303 -304 -388 0
305 306 -389 0
-305 306 389 0
305 -306 389 0
-305 -306 -389 0
307 308 -390 0
-307 308 390 0
307 -308 390 0
-307 -308 -390 0
309 310 -391 0
-309 310 391 0
309 -310 391 0
-309 -310 -391 0
311 312 -392 0
-311 312 392 0
311 -312 392 0
-311 -312 -392 0
313 314 -393 0
-313 314 393 0
313 -314 393 0
-313 -314 -393 0
315 316 -394 0
-315 316 394 0
315 -316 394 0
-315 -316 -394 0
317 318 -395 0
-317 318 395 0
317 -318 395 0
-317 -318 -395 0
319 320 -396 0
-319 320 396 0
319 -320 396 0
-319 -320 -396 0
321 322 -397 0
-321 322 397 0
321 -322 397 0
-321 -322 -397 0
323 324 -398 0
-323 324 398 0
323 -324 398 0
-323 -324 -398 0
325 326 -399 0
-325 326 399 0
325 -326 399 0
-325 -326 -399 0
327 328 -400 0
-327 328 400 0
327 -328 400 0
-327 -328 -400 0
329 330 -401 0
-329 330 401 0
329 -330 401 0
-329 -330 -401 0
331 332 -402 0
-331 332 402 0
331 -332 402 0
-331 -332 -402 0
333 334 -403 0
-333 334 403 0
333 -334 403 0
-333 -334 -403 0
335 336 -404 0
-335 336 404 0
335 -336 404 0
-335 -336 -404 0
337 338 -405 0
-337 338 405 0
337 -338 405 0
-337 -338 -405 0
339 340 -406 0
-339 340 406 0
339 -340 406 0
-339 -340 -406 0
341 342 -407 0
-341 342 407 0
341 -342 407 0
-341 -342 -407 0
343 344 -408 0
-343 344 408 0
343 -344 408 0
-343 -344 -408 0
345 346 -409 0
-345 346 409 0
345 -346 409 0
-345 -346 -409 0
347 348 -410 0
-347 348 410 0
347 -348 410 0
-347 -348 -410 0
349 350 -411 0
-349 350 411 0
349 -350 411 0
-349 -350 -411 0
351 352 -412 0
-351 352 412 0
351 -352 412 0
-351 -352 -412 0
353 354 -413 0
-353 354 413 0
353 -354 413 0
-353 -354 -413 0
355 235 -414 0
-355 235 414 0
355 -235 414 0
-355 -235 -414 0
356 357 -415 0
-356 357 415 0
356 -357 415 0
-356 -357 -415 0
358 359 -416 0
-358 359 416 0
358 -359 416 0
-358 -359 -416 0
360 361 -417 0
-360 361 417 0
360 -361 417 0
-360 -361 -417 0
362 363 -418 0
-362 363 418 0
362 -363 418 0
-362 -363 -418 0
364 365 -419 0
-364 365 419 0
364 -365 419 0
-364 -365 -419 0
366 367 -420 0
-366 367 420 0
366 -367 420 0
-366 -367 -420 0
368 369 -421 0
-368 369 421 0
368 -369 421 0
-368 -369 -421 0
370 371 -422 0
-370 371 422 0
370 -371 422 0
-370 -371 -422 0
372 373 -423 0
-372 373 423 0
372 -373 423 0
-372 -373 -423 0
374 375 -424 0
-374 375 424 0
374 -375 424 0
-374 -375 -424 0
376 377 -425 0
-376 377 425 0
376 -377 425 0
-376 -377 -425 0
378 379 -426 0
-378 379 426 0
378 -379 426 0
-378 -379 -426 0
380 381 -427 0
-380 381 427 0
380 -381 427 0
-380 -381 -427 0
382 383 -428 0
-382 383 428 0
382 -383 428 0
-382 -383 -428 0
384 385 -429 0
-384 385 429 0
384 -385 429 0
-384 -385 -429 0
386 387 -430 0
-386 387 430 0
386 -387 430 0
-386 -387 -430 0
388 389 -431 0
-388 389 431 0
388 -389 431 0
-388 -389 -431 0
390 391 -432 0
-390 391 432 0
390 -391 432 0
-390 -391 -432 0
392 393 -433 0
-392 393 433 0
392 -393 433 0
-392 -393 -433 0
394 395 -434 0
-394 395 434 0
394 -395 434 0
-394 -395 -434 0
396 397 -435 0
-396 397 435 0
396 -397 435 0
-396 -397 -435 0
398 399 -436 0
-398 399 436 0
398 -399 436 0
-398 -399 -436 0
400 401 -437 0
-400 401 437 0
400 -401 437 0
-400 -401 -437 0
402 403 -438 0
-402 403 438 0
402 -403 438 0
-402 -403 -438 0
404 405 -439 0
-404 405 439 0
404 -405 439 0
-404 -405 -439 0
406 407 -440 0
-406 407 440 0
406 -407 440 0
-406 -407 -440 0
408 409 -441 0
-408 409 441 0
408 -409 441 0
-408 -409 -441 0
410 411 -442 0
-410 411 442 0
410 -411 442 0
-410 -411 -442 0
412 413 -443 0
-412 413 443 0
412 -413 443 0
-412 -413 -443 0
415 416 -444 0
-415 416 444 0
415 -416 444 0
-415 -416 -444 0
417 418 -445 0
-417 418 445 0
417 -418 445 0
-417 -418 -445 0
419 420 -446 0
-419 420 446 0
419 -420 446 0
-419 -420 -446 0
421 422 -447 0
-421 422 447 0
421 -422 447 0
-421 -422 -447 0
423 424 -448 0
-423 424 448 0
423 -424 448 0
-423 -424 -448 0
425 426 -449 0
-425 426 449 0
425 -426 449 0
-425 -426 -449 0
427 428 -450 0
-427 428 450 0
427 -428 450 0
-427 -428 -450 0
429 430 -451 0
-429 430 451 0
429 -430 451 0
-429 -430 -451 0
431 432 -452 0
-431 432 452 0
431 -432 452 0
-431 -432 -452 0
433 434 -453 0
-433 434 453 0
433 -434 453 0
-433 -434 -453 0
435 436 -454 0
-435 436 454 0
435 -436 454 0
-435 -436 -454 0
437 438 -455 0
-437 438 455 0
437 -438 455 0
-437 -438 -455 0
439 440 -456 0
-439 440 456 0
439 -440 456 0
-439 -440 -456 0
441 442 -457 0
-441 442 457 0
441 -442 457 0
-441 -442 -457 0
443 414 -458 0
-443 414 458 0
443 -414 458 0
-443 -414 -458 0
444 445 -459 0
-444 445 459 0
444 -445 459 0
-444 -445 -459 0
446 447 -460 0
-446 447 460 0
446 -447 460 0
-446 -447 -460 0
448 449 -461 0
-448 449 461 0
448 -449 461 0
-448 -449 -461 0
450 451 -462 0
-450 451 462 0
450 -451 462 0
-450 -451 -462 0
452 453 -463 0
-452 453 463 0
452 -453 463 0
-452 -453 -463 0
454 455 -464 0
-454 455 464 0
454 -455 464 0
-454 -455 -464 0
456 457 -465 0
-456 457 465 0
456 -457 465 0
-456 -457 -465 0
459 460 -466 0
-459 460 466 0
459 -460 466 0
-459 -460 -466 0
461 462 -467 0
-461 462 467 0
461 -462 467 0
-461 -462 -467 0
463 464 -468 0
-463 464 468 0
463 -464 468 0
-463 -464 -468 0
465 458 -469 0
-465 458 469 0
465 -458 469 0
-465 -458 -469 0
466 467 -470 0
-466 467 470 0
466 -467 470 0
-466 -467 -470 0
468 469 -471 0
-468 469 471 0
468 -469 471 0
-468 -469 -471 0
470 471 -236 0
-470 471 236 0
470 -471 236 0
-470 -471 -236 0
